\* HealthyBreakfast *\
Maximize
OBJ: 0.116 x0 + 0.14 x1 + 0.18 x2 + 0.212 x3 + 0.23 x4 + 0.11 x5 + 0.18 x6
 + 0.007 x7
Subject To
_C1: x0 + x1 + x2 + x3 + x4 + x5 + x6 + x7 = 100
_C2: 3.39 x0 + 2.5 x1 + 5.1 x2 + 4.61 x3 + 6.1 x4 + 4.5 x5 + 5.78 x6 + 0.32 x7
 <= 500
_C3: 0.133 x0 + 0.49 x1 + 0.27 x2 + 0.293 x3 + 0.06 x4 + 0.16 x5 + 0.033 x6
 + 0.02 x7 >= 5
Bounds
40 <= x0 <= 100
2 <= x1 <= 5
4 <= x2 <= 10
3 <= x3 <= 10
5 <= x4 <= 10
10 <= x5 <= 15
20 <= x6 <= 30
0 <= x7 <= 100
Generals
x0
x1
x2
x3
x4
x5
x6
x7
End
